13927.42,50.0,56.8
13736.8,50.7,57.59
16204.63,42.98,48.82
13920.75,50.03,56.83
14491.17,48.06,54.59
15329.59,45.43,51.61
13818.55,50.4,57.25
15817.15,44.03,50.02
14797.9,47.06,53.46
13751.0,50.64,57.53
16153.81,43.11,48.97
15775.26,44.15,50.15
15488.94,44.96,51.08
14496.5,48.04,54.57
15778.69,44.14,50.14
16287.32,42.76,48.57
17936.85,38.83,44.11
14144.74,49.23,55.93
14410.25,48.33,54.9
14852.27,46.89,53.27
